Route #1: 23 17 60 100
Route #2: 9 6 11 7 13 21 18 90 69
Route #3: 48 54 5 87 70 37 8 49 30
Route #4: 64 28 99 22 91 26 85 36 95
Route #5: 32 14 72 43 42 50 84
Route #6: 39 75 2 46 65 97 1 24
Route #7: 80 92 27 10 53 40 93 88 41 33
Route #8: 4 83 76 58 86 38 66 45 73
Route #9: 12 44 20 19 79 82 34 71 15
Route #10: 63 89 51 25 94
Route #11: 31 52 57 59 35 55 56 61 77 47
Route #12: 62 67 81 29 3 68 96 74 78 16 98
Cost 392745.9683697517